p cnf 104 295
-1 -33 0
-2 -33 0
1 2 33 0
1 2 -34 0
-1 -2 -34 0
-1 2 34 0
1 -2 34 0
33 -35 0
-3 -35 0
3 -33 35 0
3 -33 -36 0
-3 33 -36 0
3 33 36 0
-3 -33 36 0
35 -37 0
-4 -37 0
4 -35 37 0
4 -35 -38 0
-4 35 -38 0
4 35 38 0
-4 -35 38 0
37 -39 0
-5 -39 0
5 -37 39 0
5 -37 -40 0
-5 37 -40 0
5 37 40 0
-5 -37 40 0
39 -41 0
-6 -41 0
6 -39 41 0
6 -39 -42 0
-6 39 -42 0
6 39 42 0
-6 -39 42 0
41 -43 0
-7 -43 0
7 -41 43 0
7 -41 -44 0
-7 41 -44 0
7 41 44 0
-7 -41 44 0
43 -45 0
-8 -45 0
8 -43 45 0
8 -43 -46 0
-8 43 -46 0
8 43 46 0
-8 -43 46 0
-1 -47 0
-2 -47 0
1 2 47 0
1 2 -48 0
-1 -2 -48 0
-1 2 48 0
1 -2 48 0
47 -49 0
-3 -49 0
3 -47 49 0
3 -47 -50 0
-3 47 -50 0
3 47 50 0
-3 -47 50 0
49 -51 0
-4 -51 0
4 -49 51 0
4 -49 -52 0
-4 49 -52 0
4 49 52 0
-4 -49 52 0
51 -53 0
-5 -53 0
5 -51 53 0
5 -51 -54 0
-5 51 -54 0
5 51 54 0
-5 -51 54 0
53 -55 0
-6 -55 0
6 -53 55 0
6 -53 -56 0
-6 53 -56 0
6 53 56 0
-6 -53 56 0
55 -57 0
-7 -57 0
7 -55 57 0
7 -55 -58 0
-7 55 -58 0
7 55 58 0
-7 -55 58 0
57 -59 0
-8 -59 0
8 -57 59 0
8 -57 -60 0
-8 57 -60 0
8 57 60 0
-8 -57 60 0
-9 -61 0
-10 -61 0
9 10 61 0
9 10 -62 0
-9 -10 -62 0
-9 10 62 0
9 -10 62 0
61 -63 0
-11 -63 0
11 -61 63 0
11 -61 -64 0
-11 61 -64 0
11 61 64 0
-11 -61 64 0
63 -65 0
-12 -65 0
12 -63 65 0
12 -63 -66 0
-12 63 -66 0
12 63 66 0
-12 -63 66 0
65 -67 0
-13 -67 0
13 -65 67 0
13 -65 -68 0
-13 65 -68 0
13 65 68 0
-13 -65 68 0
67 -69 0
-14 -69 0
14 -67 69 0
14 -67 -70 0
-14 67 -70 0
14 67 70 0
-14 -67 70 0
69 -71 0
-15 -71 0
15 -69 71 0
15 -69 -72 0
-15 69 -72 0
15 69 72 0
-15 -69 72 0
71 -73 0
-16 -73 0
16 -71 73 0
16 -71 -74 0
-16 71 -74 0
16 71 74 0
-16 -71 74 0
-9 -75 0
-10 -75 0
9 10 75 0
9 10 -76 0
-9 -10 -76 0
-9 10 76 0
9 -10 76 0
75 -77 0
-11 -77 0
11 -75 77 0
11 -75 -78 0
-11 75 -78 0
11 75 78 0
-11 -75 78 0
77 -79 0
-12 -79 0
12 -77 79 0
12 -77 -80 0
-12 77 -80 0
12 77 80 0
-12 -77 80 0
79 -81 0
-13 -81 0
13 -79 81 0
13 -79 -82 0
-13 79 -82 0
13 79 82 0
-13 -79 82 0
81 -83 0
-14 -83 0
14 -81 83 0
14 -81 -84 0
-14 81 -84 0
14 81 84 0
-14 -81 84 0
83 -85 0
-15 -85 0
15 -83 85 0
15 -83 -86 0
-15 83 -86 0
15 83 86 0
-15 -83 86 0
85 -87 0
-16 -87 0
16 -85 87 0
16 -85 -88 0
-16 85 -88 0
16 85 88 0
-16 -85 88 0
2 -89 0
9 -89 0
-2 -9 89 0
-2 -9 -90 0
2 9 -90 0
-2 9 90 0
2 -9 90 0
-3 -10 91 0
-3 -89 91 0
-10 -89 91 0
3 10 -91 0
3 89 -91 0
10 89 -91 0
3 -91 -92 0
10 -91 -92 0
89 -91 -92 0
-3 91 92 0
-10 91 92 0
-89 91 92 0
-3 -10 -89 92 0
3 10 89 -92 0
-4 -11 93 0
-4 -91 93 0
-11 -91 93 0
4 11 -93 0
4 91 -93 0
11 91 -93 0
4 -93 -94 0
11 -93 -94 0
91 -93 -94 0
-4 93 94 0
-11 93 94 0
-91 93 94 0
-4 -11 -91 94 0
4 11 91 -94 0
-5 -12 95 0
-5 -93 95 0
-12 -93 95 0
5 12 -95 0
5 93 -95 0
12 93 -95 0
5 -95 -96 0
12 -95 -96 0
93 -95 -96 0
-5 95 96 0
-12 95 96 0
-93 95 96 0
-5 -12 -93 96 0
5 12 93 -96 0
-6 -13 97 0
-6 -95 97 0
-13 -95 97 0
6 13 -97 0
6 95 -97 0
13 95 -97 0
6 -97 -98 0
13 -97 -98 0
95 -97 -98 0
-6 97 98 0
-13 97 98 0
-95 97 98 0
-6 -13 -95 98 0
6 13 95 -98 0
-7 -14 99 0
-7 -97 99 0
-14 -97 99 0
7 14 -99 0
7 97 -99 0
14 97 -99 0
7 -99 -100 0
14 -99 -100 0
97 -99 -100 0
-7 99 100 0
-14 99 100 0
-97 99 100 0
-7 -14 -97 100 0
7 14 97 -100 0
-8 -15 101 0
-8 -99 101 0
-15 -99 101 0
8 15 -101 0
8 99 -101 0
15 99 -101 0
8 -101 -102 0
15 -101 -102 0
99 -101 -102 0
-8 101 102 0
-15 101 102 0
-99 101 102 0
-8 -15 -99 102 0
8 15 99 -102 0
16 -103 0
101 -103 0
-16 -101 103 0
-16 -101 -104 0
16 101 -104 0
-16 101 104 0
16 -101 104 0
0
c main::$tmp::return_value_nondet_char!0@1#1 17 18 19 20 21 22 23 24
c symex::nondet1 9 10 11 12 13 14 15 16
c symex::nondet0 1 2 3 4 5 6 7 8
c main::$tmp::return_value_nondet_char$0!0@1#2 9 10 11 12 13 14 15 16
c __CPROVER_rounding_mode!0#1 FALSE FALSE FALSE FALSE FALSE FALSE FALSE FALSE FALSE FALSE FALSE FALSE FALSE FALSE FALSE FALSE FALSE FALSE FALSE FALSE FALSE FALSE FALSE FALSE FALSE FALSE FALSE FALSE FALSE FALSE FALSE FALSE
c main::$tmp::return_value_nondet_char$0!0@1#1 25 26 27 28 29 30 31 32
c __CPROVER_memory_leak#1 FALSE FALSE FALSE FALSE FALSE FALSE FALSE FALSE FALSE FALSE FALSE FALSE FALSE FALSE FALSE FALSE FALSE FALSE FALSE FALSE FALSE FALSE FALSE FALSE FALSE FALSE FALSE FALSE FALSE FALSE FALSE FALSE FALSE FALSE FALSE FALSE FALSE FALSE FALSE FALSE FALSE FALSE FALSE FALSE FALSE FALSE FALSE FALSE FALSE FALSE FALSE FALSE FALSE FALSE FALSE FALSE FALSE FALSE FALSE FALSE FALSE FALSE FALSE FALSE
c __CPROVER_max_malloc_size#1 FALSE FALSE FALSE FALSE FALSE FALSE FALSE FALSE FALSE FALSE FALSE FALSE FALSE FALSE FALSE FALSE FALSE FALSE FALSE FALSE FALSE FALSE FALSE FALSE FALSE FALSE FALSE FALSE FALSE FALSE FALSE FALSE FALSE FALSE FALSE FALSE FALSE FALSE FALSE FALSE FALSE FALSE FALSE FALSE FALSE FALSE FALSE FALSE FALSE FALSE FALSE FALSE FALSE FALSE FALSE TRUE FALSE FALSE FALSE FALSE FALSE FALSE FALSE FALSE
c __CPROVER_deallocated#1 FALSE FALSE FALSE FALSE FALSE FALSE FALSE FALSE FALSE FALSE FALSE FALSE FALSE FALSE FALSE FALSE FALSE FALSE FALSE FALSE FALSE FALSE FALSE FALSE FALSE FALSE FALSE FALSE FALSE FALSE FALSE FALSE FALSE FALSE FALSE FALSE FALSE FALSE FALSE FALSE FALSE FALSE FALSE FALSE FALSE FALSE FALSE FALSE FALSE FALSE FALSE FALSE FALSE FALSE FALSE FALSE FALSE FALSE FALSE FALSE FALSE FALSE FALSE FALSE
c main::$tmp::return_value_nondet_char!0@1#2 1 2 3 4 5 6 7 8
c __CPROVER_dead_object#1 FALSE FALSE FALSE FALSE FALSE FALSE FALSE FALSE FALSE FALSE FALSE FALSE FALSE FALSE FALSE FALSE FALSE FALSE FALSE FALSE FALSE FALSE FALSE FALSE FALSE FALSE FALSE FALSE FALSE FALSE FALSE FALSE FALSE FALSE FALSE FALSE FALSE FALSE FALSE FALSE FALSE FALSE FALSE FALSE FALSE FALSE FALSE FALSE FALSE FALSE FALSE FALSE FALSE FALSE FALSE FALSE FALSE FALSE FALSE FALSE FALSE FALSE FALSE FALSE
